(set-info :smt-lib-version 2.6)
(set-logic QF_FP)
(set-info :source |
Generated by: Chenqi Cui
Generated on: 2025-12-13
Generator: AutoSMTGen
Application: Generating SMT constraints with small solution spaces to make them challenging for SMT solvers
Target solver: Z3, CVC5, Bitwuzla
|)
(set-info :license "https://creativecommons.org/licenses/by/4.0/")
(set-info :category "industrial")
(set-info :status sat)
; benchmark generated from python API

(declare-fun x9 () (_ FloatingPoint 11 53))
(declare-fun x8 () (_ FloatingPoint 11 53))
(declare-fun x7 () (_ FloatingPoint 11 53))
(declare-fun x6 () (_ FloatingPoint 11 53))
(declare-fun x5 () (_ FloatingPoint 11 53))
(declare-fun x4 () (_ FloatingPoint 11 53))
(declare-fun x3 () (_ FloatingPoint 11 53))
(declare-fun x2 () (_ FloatingPoint 11 53))
(declare-fun x1 () (_ FloatingPoint 11 53))
(declare-fun x0 () (_ FloatingPoint 11 53))
(assert
 (let ((?x20 (fp.add roundNearestTiesToEven (fp.mul roundNearestTiesToEven (fp #b1 #b10000000101 #x480d8243ae618) x0) (fp.mul roundNearestTiesToEven (fp #b0 #b10000000101 #x4e71a26ecc35b) x1))))
 (let ((?x23 (fp.add roundNearestTiesToEven ?x20 (fp.mul roundNearestTiesToEven (fp #b1 #b10000000011 #x18667f2480fd9) x2))))
 (let ((?x26 (fp.add roundNearestTiesToEven ?x23 (fp.mul roundNearestTiesToEven (fp #b0 #b10000000001 #x2b6ed6312dcd7) x3))))
 (let ((?x29 (fp.add roundNearestTiesToEven ?x26 (fp.mul roundNearestTiesToEven (fp #b1 #b10000000101 #x1fa28cd6e6805) x4))))
 (let ((?x32 (fp.add roundNearestTiesToEven ?x29 (fp.mul roundNearestTiesToEven (fp #b1 #b10000000100 #x9900373680f82) x5))))
 (let ((?x35 (fp.add roundNearestTiesToEven ?x32 (fp.mul roundNearestTiesToEven (fp #b0 #b10000000101 #x4a3d2c8990737) x6))))
 (let ((?x38 (fp.add roundNearestTiesToEven ?x35 (fp.mul roundNearestTiesToEven (fp #b1 #b10000000001 #xf38588cbc2567) x7))))
 (let ((?x41 (fp.add roundNearestTiesToEven ?x38 (fp.mul roundNearestTiesToEven (fp #b1 #b10000000100 #x505a87398740d) x8))))
 (let ((?x44 (fp.add roundNearestTiesToEven ?x41 (fp.mul roundNearestTiesToEven (fp #b1 #b01111111110 #x34aa70f4f1575) x9))))
 (fp.leq ?x44 (fp #b1 #b10000000100 #xe5ee2076859ca))))))))))))
(assert
 (let ((?x68 (fp.add roundNearestTiesToEven (fp.mul roundNearestTiesToEven (fp #b0 #b10000000011 #xf9e3423528e40) x0) (fp.mul roundNearestTiesToEven (fp #b0 #b10000000010 #xbf516b7be6b3c) x1))))
 (let ((?x71 (fp.add roundNearestTiesToEven ?x68 (fp.mul roundNearestTiesToEven (fp #b1 #b10000000010 #x81ca79d491a40) x2))))
 (let ((?x74 (fp.add roundNearestTiesToEven ?x71 (fp.mul roundNearestTiesToEven (fp #b0 #b10000000010 #x90804d49215d9) x3))))
 (let ((?x77 (fp.add roundNearestTiesToEven ?x74 (fp.mul roundNearestTiesToEven (fp #b1 #b10000000010 #x4bcc40aefdbd0) x4))))
 (let ((?x80 (fp.add roundNearestTiesToEven ?x77 (fp.mul roundNearestTiesToEven (fp #b0 #b10000000101 #x4c5a5809af883) x5))))
 (let ((?x83 (fp.add roundNearestTiesToEven ?x80 (fp.mul roundNearestTiesToEven (fp #b1 #b10000000100 #xcbffe5b045461) x6))))
 (let ((?x86 (fp.add roundNearestTiesToEven ?x83 (fp.mul roundNearestTiesToEven (fp #b0 #b10000000101 #x4185528180bb4) x7))))
 (let ((?x89 (fp.add roundNearestTiesToEven ?x86 (fp.mul roundNearestTiesToEven (fp #b1 #b10000000100 #x55a47a2c6fcf1) x8))))
 (let ((?x92 (fp.add roundNearestTiesToEven ?x89 (fp.mul roundNearestTiesToEven (fp #b1 #b10000000101 #x4f63405bb5654) x9))))
 (fp.leq ?x92 (fp #b1 #b10000000100 #x925f378e36155))))))))))))
(assert
 (let ((?x99 (fp.add roundNearestTiesToEven (fp.mul roundNearestTiesToEven (fp #b1 #b10000000011 #x027cf9d642899) x0) (fp.mul roundNearestTiesToEven (fp #b0 #b10000000100 #xbb2bf2aa07236) x1))))
 (let ((?x102 (fp.add roundNearestTiesToEven ?x99 (fp.mul roundNearestTiesToEven (fp #b0 #b10000000101 #x56572cfd904ac) x2))))
 (let ((?x105 (fp.add roundNearestTiesToEven ?x102 (fp.mul roundNearestTiesToEven (fp #b0 #b10000000010 #x2f5b21cea91ad) x3))))
 (let ((?x108 (fp.add roundNearestTiesToEven ?x105 (fp.mul roundNearestTiesToEven (fp #b0 #b10000000100 #xd17ea01d1a1c0) x4))))
 (let ((?x111 (fp.add roundNearestTiesToEven ?x108 (fp.mul roundNearestTiesToEven (fp #b0 #b10000000100 #xfb146f692d327) x5))))
 (let ((?x114 (fp.add roundNearestTiesToEven ?x111 (fp.mul roundNearestTiesToEven (fp #b1 #b10000000011 #x20410c89dd65e) x6))))
 (let ((?x117 (fp.add roundNearestTiesToEven ?x114 (fp.mul roundNearestTiesToEven (fp #b0 #b10000000100 #x37c8a6152d66b) x7))))
 (let ((?x120 (fp.add roundNearestTiesToEven ?x117 (fp.mul roundNearestTiesToEven (fp #b0 #b10000000101 #x3ed02d8036641) x8))))
 (let ((?x123 (fp.add roundNearestTiesToEven ?x120 (fp.mul roundNearestTiesToEven (fp #b1 #b10000000101 #x01f884d69bd5b) x9))))
 (fp.leq ?x123 (fp #b0 #b10000000101 #x087d68576e977))))))))))))
(assert
 (let ((?x130 (fp.add roundNearestTiesToEven (fp.mul roundNearestTiesToEven (fp #b1 #b10000000101 #x195532edbbaf0) x0) (fp.mul roundNearestTiesToEven (fp #b1 #b10000000101 #x23ee1e7c2e9c2) x1))))
 (let ((?x133 (fp.add roundNearestTiesToEven ?x130 (fp.mul roundNearestTiesToEven (fp #b0 #b10000000101 #x5a3841be7254f) x2))))
 (let ((?x136 (fp.add roundNearestTiesToEven ?x133 (fp.mul roundNearestTiesToEven (fp #b0 #b10000000100 #x0cd93da650197) x3))))
 (let ((?x139 (fp.add roundNearestTiesToEven ?x136 (fp.mul roundNearestTiesToEven (fp #b1 #b10000000100 #x7c905f6d89fa4) x4))))
 (let ((?x142 (fp.add roundNearestTiesToEven ?x139 (fp.mul roundNearestTiesToEven (fp #b1 #b10000000000 #xe7875624054bf) x5))))
 (let ((?x145 (fp.add roundNearestTiesToEven ?x142 (fp.mul roundNearestTiesToEven (fp #b0 #b10000000011 #x76490230cffda) x6))))
 (let ((?x148 (fp.add roundNearestTiesToEven ?x145 (fp.mul roundNearestTiesToEven (fp #b0 #b10000000001 #xf9ab72854fdbe) x7))))
 (let ((?x151 (fp.add roundNearestTiesToEven ?x148 (fp.mul roundNearestTiesToEven (fp #b0 #b10000000101 #x40a11937cc427) x8))))
 (let ((?x154 (fp.add roundNearestTiesToEven ?x151 (fp.mul roundNearestTiesToEven (fp #b0 #b10000000101 #x61470e9123ec7) x9))))
 (fp.leq ?x154 (fp #b0 #b10000000101 #x9fe0e3dfec51f))))))))))))
(assert
 (let ((?x161 (fp.add roundNearestTiesToEven (fp.mul roundNearestTiesToEven (fp #b1 #b10000000011 #x7806d74c0c269) x0) (fp.mul roundNearestTiesToEven (fp #b0 #b10000000010 #x0b7a9351ab194) x1))))
 (let ((?x164 (fp.add roundNearestTiesToEven ?x161 (fp.mul roundNearestTiesToEven (fp #b1 #b10000000101 #x8c9d57afb95ca) x2))))
 (let ((?x167 (fp.add roundNearestTiesToEven ?x164 (fp.mul roundNearestTiesToEven (fp #b1 #b10000000001 #xc890ebdd2a583) x3))))
 (let ((?x170 (fp.add roundNearestTiesToEven ?x167 (fp.mul roundNearestTiesToEven (fp #b1 #b10000000101 #x3712276869a7b) x4))))
 (let ((?x173 (fp.add roundNearestTiesToEven ?x170 (fp.mul roundNearestTiesToEven (fp #b1 #b10000000101 #x657c99c2a5f47) x5))))
 (let ((?x176 (fp.add roundNearestTiesToEven ?x173 (fp.mul roundNearestTiesToEven (fp #b0 #b10000000011 #x88856bb71697c) x6))))
 (let ((?x179 (fp.add roundNearestTiesToEven ?x176 (fp.mul roundNearestTiesToEven (fp #b1 #b01111111101 #x2feca0a45d9d0) x7))))
 (let ((?x182 (fp.add roundNearestTiesToEven ?x179 (fp.mul roundNearestTiesToEven (fp #b0 #b10000000010 #x5bb0f17aedb95) x8))))
 (let ((?x185 (fp.add roundNearestTiesToEven ?x182 (fp.mul roundNearestTiesToEven (fp #b1 #b10000000101 #x7776a44c345d8) x9))))
 (fp.leq ?x185 (fp #b0 #b10000000101 #x1e374c8330182))))))))))))
(assert
 (let ((?x192 (fp.add roundNearestTiesToEven (fp.mul roundNearestTiesToEven (fp #b1 #b10000000101 #x3feb61e943a7c) x0) (fp.mul roundNearestTiesToEven (fp #b0 #b10000000101 #x17b20bc69d7b7) x1))))
 (let ((?x195 (fp.add roundNearestTiesToEven ?x192 (fp.mul roundNearestTiesToEven (fp #b0 #b10000000011 #x5ce033b412ae0) x2))))
 (let ((?x198 (fp.add roundNearestTiesToEven ?x195 (fp.mul roundNearestTiesToEven (fp #b0 #b10000000101 #x6cbfc485d5f52) x3))))
 (let ((?x201 (fp.add roundNearestTiesToEven ?x198 (fp.mul roundNearestTiesToEven (fp #b0 #b01111111111 #xb866bde3454ca) x4))))
 (let ((?x204 (fp.add roundNearestTiesToEven ?x201 (fp.mul roundNearestTiesToEven (fp #b0 #b10000000100 #x4ef3dd645fba6) x5))))
 (let ((?x207 (fp.add roundNearestTiesToEven ?x204 (fp.mul roundNearestTiesToEven (fp #b0 #b10000000101 #x0a2072e05f988) x6))))
 (let ((?x210 (fp.add roundNearestTiesToEven ?x207 (fp.mul roundNearestTiesToEven (fp #b1 #b10000000100 #x4a0ae1470f801) x7))))
 (let ((?x213 (fp.add roundNearestTiesToEven ?x210 (fp.mul roundNearestTiesToEven (fp #b0 #b10000000011 #x4ad01183ffe8b) x8))))
 (let ((?x216 (fp.add roundNearestTiesToEven ?x213 (fp.mul roundNearestTiesToEven (fp #b0 #b10000000101 #x5b9b6135ce439) x9))))
 (fp.leq ?x216 (fp #b1 #b10000000101 #x58f25ce8f5390))))))))))))
(assert
 (let ((?x223 (fp.add roundNearestTiesToEven (fp.mul roundNearestTiesToEven (fp #b0 #b10000000100 #x783414ef6d209) x0) (fp.mul roundNearestTiesToEven (fp #b0 #b10000000010 #xdd372d6dc05ec) x1))))
 (let ((?x226 (fp.add roundNearestTiesToEven ?x223 (fp.mul roundNearestTiesToEven (fp #b1 #b10000000011 #x25772d5bd3b3a) x2))))
 (let ((?x229 (fp.add roundNearestTiesToEven ?x226 (fp.mul roundNearestTiesToEven (fp #b1 #b10000000101 #x3882fbe972ef5) x3))))
 (let ((?x232 (fp.add roundNearestTiesToEven ?x229 (fp.mul roundNearestTiesToEven (fp #b0 #b10000000100 #xd9114e6cbe29e) x4))))
 (let ((?x235 (fp.add roundNearestTiesToEven ?x232 (fp.mul roundNearestTiesToEven (fp #b1 #b10000000011 #x58bddcdda15b8) x5))))
 (let ((?x238 (fp.add roundNearestTiesToEven ?x235 (fp.mul roundNearestTiesToEven (fp #b0 #b10000000101 #x1726dbba808eb) x6))))
 (let ((?x241 (fp.add roundNearestTiesToEven ?x238 (fp.mul roundNearestTiesToEven (fp #b1 #b10000000101 #x1ac199cc12937) x7))))
 (let ((?x244 (fp.add roundNearestTiesToEven ?x241 (fp.mul roundNearestTiesToEven (fp #b0 #b10000000101 #x6aa22203a12fa) x8))))
 (let ((?x247 (fp.add roundNearestTiesToEven ?x244 (fp.mul roundNearestTiesToEven (fp #b0 #b10000000011 #xb412e410cb715) x9))))
 (fp.leq ?x247 (fp #b1 #b10000000010 #x3736511fc077e))))))))))))
(assert
 (let ((?x254 (fp.add roundNearestTiesToEven (fp.mul roundNearestTiesToEven (fp #b1 #b10000000001 #x3dc29745ca4a0) x0) (fp.mul roundNearestTiesToEven (fp #b1 #b10000000100 #x0bd5ef54569ee) x1))))
 (let ((?x257 (fp.add roundNearestTiesToEven ?x254 (fp.mul roundNearestTiesToEven (fp #b0 #b10000000101 #x7eea664f039d0) x2))))
 (let ((?x260 (fp.add roundNearestTiesToEven ?x257 (fp.mul roundNearestTiesToEven (fp #b0 #b10000000101 #x3077fb59d8ace) x3))))
 (let ((?x263 (fp.add roundNearestTiesToEven ?x260 (fp.mul roundNearestTiesToEven (fp #b1 #b10000000100 #x5c3caac694ecd) x4))))
 (let ((?x266 (fp.add roundNearestTiesToEven ?x263 (fp.mul roundNearestTiesToEven (fp #b1 #b10000000100 #xe2b1451499b56) x5))))
 (let ((?x269 (fp.add roundNearestTiesToEven ?x266 (fp.mul roundNearestTiesToEven (fp #b0 #b10000000000 #xdb926ee5c4323) x6))))
 (let ((?x272 (fp.add roundNearestTiesToEven ?x269 (fp.mul roundNearestTiesToEven (fp #b0 #b10000000001 #xf227f840b9d51) x7))))
 (let ((?x275 (fp.add roundNearestTiesToEven ?x272 (fp.mul roundNearestTiesToEven (fp #b0 #b10000000101 #x3988fed5a0fb5) x8))))
 (let ((?x278 (fp.add roundNearestTiesToEven ?x275 (fp.mul roundNearestTiesToEven (fp #b0 #b10000000001 #x1b58d4fd98d4d) x9))))
 (fp.leq ?x278 (fp #b0 #b10000000101 #x5705cc356ae6c))))))))))))
(assert
 (let ((?x285 (fp.add roundNearestTiesToEven (fp.mul roundNearestTiesToEven (fp #b0 #b10000000100 #xacd18a5c67b17) x0) (fp.mul roundNearestTiesToEven (fp #b0 #b10000000100 #xaac409724bf41) x1))))
 (let ((?x288 (fp.add roundNearestTiesToEven ?x285 (fp.mul roundNearestTiesToEven (fp #b1 #b10000000100 #x549e259b6db1c) x2))))
 (let ((?x291 (fp.add roundNearestTiesToEven ?x288 (fp.mul roundNearestTiesToEven (fp #b0 #b10000000101 #x1e619b063a4a6) x3))))
 (let ((?x294 (fp.add roundNearestTiesToEven ?x291 (fp.mul roundNearestTiesToEven (fp #b0 #b10000000100 #x85dcacbf8c71f) x4))))
 (let ((?x297 (fp.add roundNearestTiesToEven ?x294 (fp.mul roundNearestTiesToEven (fp #b1 #b10000000101 #x2e74b3478510d) x5))))
 (let ((?x300 (fp.add roundNearestTiesToEven ?x297 (fp.mul roundNearestTiesToEven (fp #b1 #b10000000100 #x556470e85ce87) x6))))
 (let ((?x303 (fp.add roundNearestTiesToEven ?x300 (fp.mul roundNearestTiesToEven (fp #b1 #b10000000100 #x81ea0dcce2502) x7))))
 (let ((?x306 (fp.add roundNearestTiesToEven ?x303 (fp.mul roundNearestTiesToEven (fp #b0 #b10000000011 #xd7a5acab8bbea) x8))))
 (let ((?x309 (fp.add roundNearestTiesToEven ?x306 (fp.mul roundNearestTiesToEven (fp #b0 #b10000000101 #x972136eb9e5ac) x9))))
 (fp.leq ?x309 (fp #b1 #b10000000011 #x99505a1f1182b))))))))))))
(assert
 (let ((?x316 (fp.add roundNearestTiesToEven (fp.mul roundNearestTiesToEven (fp #b1 #b10000000100 #x012350a60386e) x0) (fp.mul roundNearestTiesToEven (fp #b1 #b10000000101 #x056cc915af639) x1))))
 (let ((?x319 (fp.add roundNearestTiesToEven ?x316 (fp.mul roundNearestTiesToEven (fp #b1 #b10000000101 #x92ad8cccabe3b) x2))))
 (let ((?x322 (fp.add roundNearestTiesToEven ?x319 (fp.mul roundNearestTiesToEven (fp #b0 #b10000000101 #x7f7c97aa2bc5b) x3))))
 (let ((?x325 (fp.add roundNearestTiesToEven ?x322 (fp.mul roundNearestTiesToEven (fp #b0 #b10000000100 #xaba77c2292a9d) x4))))
 (let ((?x328 (fp.add roundNearestTiesToEven ?x325 (fp.mul roundNearestTiesToEven (fp #b1 #b10000000100 #x0db1cb64b137a) x5))))
 (let ((?x331 (fp.add roundNearestTiesToEven ?x328 (fp.mul roundNearestTiesToEven (fp #b0 #b10000000100 #x0ace3725f0b45) x6))))
 (let ((?x334 (fp.add roundNearestTiesToEven ?x331 (fp.mul roundNearestTiesToEven (fp #b1 #b10000000101 #x3ef6c25ecd487) x7))))
 (let ((?x337 (fp.add roundNearestTiesToEven ?x334 (fp.mul roundNearestTiesToEven (fp #b1 #b10000000101 #x5c5278364d75f) x8))))
 (let ((?x340 (fp.add roundNearestTiesToEven ?x337 (fp.mul roundNearestTiesToEven (fp #b0 #b10000000101 #x4da5ec8fd3149) x9))))
 (fp.leq ?x340 (fp #b0 #b10000000100 #x28181f37dfdb1))))))))))))
(assert
 (let ((?x347 (fp.add roundNearestTiesToEven (fp.mul roundNearestTiesToEven (fp #b0 #b10000000101 #x65d84624ea2df) x0) (fp.mul roundNearestTiesToEven (fp #b1 #b10000000100 #x169e45759b310) x1))))
 (let ((?x350 (fp.add roundNearestTiesToEven ?x347 (fp.mul roundNearestTiesToEven (fp #b1 #b10000000000 #x176faec129485) x2))))
 (let ((?x353 (fp.add roundNearestTiesToEven ?x350 (fp.mul roundNearestTiesToEven (fp #b1 #b10000000101 #x5ba0cde94d4f9) x3))))
 (let ((?x356 (fp.add roundNearestTiesToEven ?x353 (fp.mul roundNearestTiesToEven (fp #b0 #b10000000100 #x5d4e7db809cdf) x4))))
 (let ((?x359 (fp.add roundNearestTiesToEven ?x356 (fp.mul roundNearestTiesToEven (fp #b0 #b10000000011 #x551f74f8c6859) x5))))
 (let ((?x362 (fp.add roundNearestTiesToEven ?x359 (fp.mul roundNearestTiesToEven (fp #b1 #b10000000101 #x1193817d76cc2) x6))))
 (let ((?x365 (fp.add roundNearestTiesToEven ?x362 (fp.mul roundNearestTiesToEven (fp #b0 #b10000000101 #x28c419947e0ee) x7))))
 (let ((?x368 (fp.add roundNearestTiesToEven ?x365 (fp.mul roundNearestTiesToEven (fp #b1 #b10000000011 #xc49d45416c1ac) x8))))
 (let ((?x371 (fp.add roundNearestTiesToEven ?x368 (fp.mul roundNearestTiesToEven (fp #b0 #b10000000011 #x8da5fd5467750) x9))))
 (fp.leq ?x371 (fp #b0 #b10000000101 #x2d3aba24d8afc))))))))))))
(assert
 (let ((?x378 (fp.add roundNearestTiesToEven (fp.mul roundNearestTiesToEven (fp #b1 #b10000000100 #x9e91406f9a18b) x0) (fp.mul roundNearestTiesToEven (fp #b1 #b10000000100 #x8a19b9ac76638) x1))))
 (let ((?x381 (fp.add roundNearestTiesToEven ?x378 (fp.mul roundNearestTiesToEven (fp #b1 #b10000000100 #xcca46a350e5be) x2))))
 (let ((?x384 (fp.add roundNearestTiesToEven ?x381 (fp.mul roundNearestTiesToEven (fp #b1 #b10000000000 #xedb202c724ce3) x3))))
 (let ((?x387 (fp.add roundNearestTiesToEven ?x384 (fp.mul roundNearestTiesToEven (fp #b0 #b10000000011 #xc038f7296805f) x4))))
 (let ((?x390 (fp.add roundNearestTiesToEven ?x387 (fp.mul roundNearestTiesToEven (fp #b1 #b10000000100 #xc3d884d7cdf44) x5))))
 (let ((?x393 (fp.add roundNearestTiesToEven ?x390 (fp.mul roundNearestTiesToEven (fp #b1 #b10000000101 #x31f7c5048affc) x6))))
 (let ((?x396 (fp.add roundNearestTiesToEven ?x393 (fp.mul roundNearestTiesToEven (fp #b1 #b10000000100 #xedcd1df2e62ed) x7))))
 (let ((?x399 (fp.add roundNearestTiesToEven ?x396 (fp.mul roundNearestTiesToEven (fp #b0 #b10000000100 #xafaebc388f419) x8))))
 (let ((?x402 (fp.add roundNearestTiesToEven ?x399 (fp.mul roundNearestTiesToEven (fp #b1 #b10000000101 #x2be0e7f483b18) x9))))
 (fp.leq ?x402 (fp #b0 #b10000000100 #x6a4a9f6f898d9))))))))))))
(assert
 (let ((?x409 (fp.add roundNearestTiesToEven (fp.mul roundNearestTiesToEven (fp #b0 #b10000000101 #x2da3b17ee4e15) x0) (fp.mul roundNearestTiesToEven (fp #b1 #b10000000010 #x9c9a7201170e1) x1))))
(let ((?x412 (fp.add roundNearestTiesToEven ?x409 (fp.mul roundNearestTiesToEven (fp #b0 #b10000000101 #xb2076ac68e775) x2))))
(let ((?x415 (fp.add roundNearestTiesToEven ?x412 (fp.mul roundNearestTiesToEven (fp #b0 #b10000000100 #xd1d162e647a20) x3))))
(let ((?x418 (fp.add roundNearestTiesToEven ?x415 (fp.mul roundNearestTiesToEven (fp #b1 #b10000000101 #x445bfd428ed93) x4))))
(let ((?x421 (fp.add roundNearestTiesToEven ?x418 (fp.mul roundNearestTiesToEven (fp #b1 #b10000000100 #xa7d83b31c080f) x5))))
(let ((?x424 (fp.add roundNearestTiesToEven ?x421 (fp.mul roundNearestTiesToEven (fp #b1 #b10000000100 #x4c46060c61372) x6))))
(let ((?x427 (fp.add roundNearestTiesToEven ?x424 (fp.mul roundNearestTiesToEven (fp #b1 #b10000000100 #x8dc9a9ea7a4f4) x7))))
(let ((?x430 (fp.add roundNearestTiesToEven ?x427 (fp.mul roundNearestTiesToEven (fp #b1 #b10000000101 #x9c5e7e76df223) x8))))
(let ((?x433 (fp.add roundNearestTiesToEven ?x430 (fp.mul roundNearestTiesToEven (fp #b0 #b10000000011 #x361481a92440f) x9))))
(fp.leq ?x433 (fp #b1 #b10000000100 #xc54a8da7405f4))))))))))))
(check-sat)
(exit)
